p cnf 15 30
15 14 3 0
15 14 -1 0
-15 -13 12 0
-15 -8 1 0
14 13 -5 0
-14 -12 6 0
-14 11 -10 0
-14 10 -3 0
-14 -9 -4 0
-14 8 -5 0
-14 8 4 0
14 6 -5 0
13 -12 -10 0
-13 -5 3 0
13 -5 -2 0
-12 10 -9 0
12 10 7 0
-12 -9 5 0
-12 -3 2 0
11 10 8 0
-11 -8 -3 0
11 -5 3 0
-10 -8 -1 0
10 -7 5 0
7 -6 1 0
6 5 -2 0
6 -4 3 0
5 -4 -1 0
5 3 -1 0
3 2 -1 0
